
;this file is automatically generated: Tue Sep 28 20:42:24 IST 2021

;declarations generated

(declare-fun Gender ( Int) Int)
(declare-fun oclExcludes ( Int Int) Bool)
(declare-fun type_411850bc_6313_437b_b073_ce4014903dc5_Module ( Int) Bool)
(declare-fun k96ea9330_efac_44d4_b28e_42fb450810a0 () Int)
(declare-fun Cardinality ( Int) Int)
(declare-fun rel_ef4d34d7_feb1_42bf_bb22_a0039c17a781_choose ( Int Int) Bool)
(declare-fun type_411850bc_6313_437b_b073_ce4014903dc5_Student ( Int) Bool)
(declare-fun type_411850bc_6313_437b_b073_ce4014903dc5_Person ( Int) Bool)
(declare-fun student_year ( Int) Int)
(declare-fun type_411850bc_6313_437b_b073_ce4014903dc5_Department ( Int) Bool)
(declare-fun type_411850bc_6313_437b_b073_ce4014903dc5_Child ( Int) Bool)
(declare-fun type_411850bc_6313_437b_b073_ce4014903dc5_University ( Int) Bool)
(declare-fun obj_f276deba_2fdc_480e_88e8_0188d6ffd004 ( Int) Int)
(declare-fun oclSelect ( Int Bool) Int)
(declare-fun kf4dfa148_7410_40c9_b757_a6ed7ae9f3ef () Int)
(declare-fun module_year ( Int) Int)
(declare-fun container_ ( Int) Int)
(declare-fun oclIncludes ( Int Int) Bool)
(declare-fun ObjAt ( Int Int) Int)

;formula(s) generated
(assert (forall ((x Int)(y Int)) (=> (and ( rel_ef4d34d7_feb1_42bf_bb22_a0039c17a781_choose ( obj_f276deba_2fdc_480e_88e8_0188d6ffd004 x )   ( obj_f276deba_2fdc_480e_88e8_0188d6ffd004 y )  )  (and (and ( type_411850bc_6313_437b_b073_ce4014903dc5_Student x )  ( type_411850bc_6313_437b_b073_ce4014903dc5_Person x ) ) ( type_411850bc_6313_437b_b073_ce4014903dc5_Module y ) )) (or (or (or (= (* ( Cardinality ( container_ x )  )  0) (* ( Cardinality ( container_ y )  )  1)) (and (= (* ( Cardinality ( container_ y )  )  1) (* ( Cardinality ( container_ x )  )  k96ea9330_efac_44d4_b28e_42fb450810a0)) (>= k96ea9330_efac_44d4_b28e_42fb450810a0 0))) (= (* ( Cardinality ( container_ x )  )  0) (* ( Cardinality ( container_ y )  )  1))) (and (= (* ( Cardinality ( container_ y )  )  1) (* ( Cardinality ( container_ x )  )  kf4dfa148_7410_40c9_b757_a6ed7ae9f3ef)) (>= kf4dfa148_7410_40c9_b757_a6ed7ae9f3ef 0))))))
(assert (! (and (forall ((v Int)) (=> (and ( type_411850bc_6313_437b_b073_ce4014903dc5_Student v )  ( type_411850bc_6313_437b_b073_ce4014903dc5_Person v ) ) (>= ( student_year ( obj_f276deba_2fdc_480e_88e8_0188d6ffd004 v )  )  1))) (forall ((v Int)) (=> (and ( type_411850bc_6313_437b_b073_ce4014903dc5_Student v )  ( type_411850bc_6313_437b_b073_ce4014903dc5_Person v ) ) (<= ( student_year ( obj_f276deba_2fdc_480e_88e8_0188d6ffd004 v )  )  6)))):named l0))
(assert (! (and (exists ((s Int)) (and (and ( type_411850bc_6313_437b_b073_ce4014903dc5_Student s )  ( type_411850bc_6313_437b_b073_ce4014903dc5_Person s ) ) (= ( student_year ( obj_f276deba_2fdc_480e_88e8_0188d6ffd004 s )  )  6))) (exists ((s Int)) (and (and ( type_411850bc_6313_437b_b073_ce4014903dc5_Student s )  ( type_411850bc_6313_437b_b073_ce4014903dc5_Person s ) ) (< ( student_year ( obj_f276deba_2fdc_480e_88e8_0188d6ffd004 s )  )  6)))):named l1))
(assert (! (forall ((s1 Int)) (=> (and ( type_411850bc_6313_437b_b073_ce4014903dc5_Student s1 )  ( type_411850bc_6313_437b_b073_ce4014903dc5_Person s1 ) ) (forall ((m1 Int)) (=> (and ( type_411850bc_6313_437b_b073_ce4014903dc5_Module m1 )  ( rel_ef4d34d7_feb1_42bf_bb22_a0039c17a781_choose ( obj_f276deba_2fdc_480e_88e8_0188d6ffd004 s1 )   ( obj_f276deba_2fdc_480e_88e8_0188d6ffd004 m1 )  ) ) (= ( student_year ( obj_f276deba_2fdc_480e_88e8_0188d6ffd004 s1 )  )  ( module_year ( obj_f276deba_2fdc_480e_88e8_0188d6ffd004 m1 )  ) ))))):named l2))
(assert (! (and (forall ((v Int)) (=> ( type_411850bc_6313_437b_b073_ce4014903dc5_Module v )  (>= ( module_year ( obj_f276deba_2fdc_480e_88e8_0188d6ffd004 v )  )  1))) (forall ((v Int)) (=> ( type_411850bc_6313_437b_b073_ce4014903dc5_Module v )  (<= ( module_year ( obj_f276deba_2fdc_480e_88e8_0188d6ffd004 v )  )  5)))):named l3))
(assert (! (forall ((s Int)) (=> (and ( type_411850bc_6313_437b_b073_ce4014903dc5_Student s )  ( type_411850bc_6313_437b_b073_ce4014903dc5_Person s ) ) (exists ((v Int)) (and ( type_411850bc_6313_437b_b073_ce4014903dc5_Module v )  ( rel_ef4d34d7_feb1_42bf_bb22_a0039c17a781_choose ( obj_f276deba_2fdc_480e_88e8_0188d6ffd004 s )   ( obj_f276deba_2fdc_480e_88e8_0188d6ffd004 v )  ) )))):named l4))
(assert (! (exists ((o Int)) (and ( type_411850bc_6313_437b_b073_ce4014903dc5_Child ( obj_f276deba_2fdc_480e_88e8_0188d6ffd004 o )  )  ( type_411850bc_6313_437b_b073_ce4014903dc5_Person ( obj_f276deba_2fdc_480e_88e8_0188d6ffd004 o )  ) )):named c0))
(assert (! (exists ((o Int)) ( type_411850bc_6313_437b_b073_ce4014903dc5_Department ( obj_f276deba_2fdc_480e_88e8_0188d6ffd004 o )  ) ):named c1))
(assert (! (exists ((o Int)) ( type_411850bc_6313_437b_b073_ce4014903dc5_Module ( obj_f276deba_2fdc_480e_88e8_0188d6ffd004 o )  ) ):named c2))
(assert (! (exists ((o Int)) ( type_411850bc_6313_437b_b073_ce4014903dc5_Person ( obj_f276deba_2fdc_480e_88e8_0188d6ffd004 o )  ) ):named c3))
(assert (! (exists ((o Int)) (and ( type_411850bc_6313_437b_b073_ce4014903dc5_Student ( obj_f276deba_2fdc_480e_88e8_0188d6ffd004 o )  )  ( type_411850bc_6313_437b_b073_ce4014903dc5_Person ( obj_f276deba_2fdc_480e_88e8_0188d6ffd004 o )  ) )):named c4))
(assert (! (exists ((o Int)) ( type_411850bc_6313_437b_b073_ce4014903dc5_University ( obj_f276deba_2fdc_480e_88e8_0188d6ffd004 o )  ) ):named c5))

 ;end of formula 